This is Ipopt version 3.10.0, running with linear solver ma27.

Number of nonzeros in equality constraint Jacobian...:        2
Number of nonzeros in inequality constraint Jacobian.:        4
Number of nonzeros in Lagrangian Hessian.............:        0

Total number of variables............................:        2
                     variables with only lower bounds:        0
                variables with lower and upper bounds:        2
                     variables with only upper bounds:        0
Total number of equality constraints.................:        1
Total number of inequality constraints...............:        2
        inequality constraints with only lower bounds:        0
   inequality constraints with lower and upper bounds:        0
        inequality constraints with only upper bounds:        2

iter    objective    inf_pr   inf_du lg(mu)  ||d||  lg(rg) alpha_du alpha_pr  ls
   0  9.6100000e+04 4.66e-01 3.00e+02   0.0 0.00e+00    -  0.00e+00 0.00e+00   0
   1  9.5475874e+04 4.63e-01 3.77e+03   2.0 3.73e+02    -  4.11e-01 4.32e-03f  1
   2  1.0159622e+05 2.98e-01 9.77e+04   1.5 1.80e+02    -  1.12e-02 3.03e-01h  1
   3  1.2207141e+05 5.51e-02 2.37e+02   2.3 1.23e+02    -  1.00e+00 1.00e+00h  1
   4  1.2647465e+05 4.76e-03 1.65e+03   1.2 1.18e+01    -  9.99e-01 8.90e-01h  1
   5  1.2709291e+05 3.90e-04 6.52e-01  -0.7 1.08e+00    -  1.00e+00 1.00e+00h  1
   6  1.2702776e+05 4.86e-05 9.47e-01  -6.0 1.20e-01    -  9.89e-01 9.92e-01f  1
   7  1.2703408e+05 4.69e-06 1.37e-02  -4.1 1.22e-02    -  1.00e+00 9.99e-01h  1
   8  1.2703337e+05 9.66e-07 2.86e-05 -10.0 1.36e-03    -  1.00e+00 1.00e+00f  1

Number of Iterations....: 8

                                   (scaled)                 (unscaled)
Objective...............:   1.2703337270000282e+05    1.2703337270000282e+05
Dual infeasibility......:   2.8569425921887159e-05    2.8569425921887159e-05
Constraint violation....:   9.6595741479911126e-07    9.6595741479911126e-07
Complementarity.........:   5.7580002623608075e-09    5.7580002623608075e-09
Overall NLP error.......:   9.6595741479911126e-07    2.8569425921887159e-05


Number of objective function evaluations             = 9
Number of objective gradient evaluations             = 9
Number of equality constraint evaluations            = 9
Number of inequality constraint evaluations          = 9
Number of equality constraint Jacobian evaluations   = 9
Number of inequality constraint Jacobian evaluations = 9
Number of Lagrangian Hessian evaluations             = 0
Total CPU secs in IPOPT (w/o function evaluations)   =      0.010
Total CPU secs in NLP function evaluations           =      5.356

EXIT: Optimal Solution Found.
